# Solution for model GasLib-40
# Objective value = 1.0614568777848273e+01
loadshed[innode_1] 0
loadshed[innode_2] 0
loadshed[innode_3] 0
loadshed[innode_4] 0
loadshed[innode_5] 0
loadshed[innode_6] 0
loadshed[innode_7] 0
loadshed[innode_8] 0
loadshed[source_1] -3.2657607349668827e-01
loadshed[source_2] 7.1424749130837073e-02
loadshed[source_3] 3.2229377567301432e-01
loadshed[sink_1] 0
loadshed[sink_2] 0
loadshed[sink_3] 0
loadshed[sink_4] 0
loadshed[sink_5] 0
loadshed[sink_6] 0
loadshed[sink_7] 0
loadshed[sink_8] 0
loadshed[sink_9] 0
loadshed[sink_10] 0
loadshed[sink_11] 0
loadshed[sink_12] 6.4904369597034017e-01
loadshed[sink_13] 0
loadshed[sink_14] 0
loadshed[sink_15] 0
loadshed[sink_16] 0
loadshed[sink_17] 0
loadshed[sink_18] 0
loadshed[sink_19] 0
loadshed[sink_20] 0
loadshed[sink_21] 0
loadshed[sink_22] 0
loadshed[sink_23] 0
loadshed[sink_24] 0
loadshed[sink_25] 0
loadshed[sink_26] 0
loadshed[sink_27] 0
loadshed[sink_28] 0
loadshed[sink_29] 0
flow[source_1,sink_3] 2.0971877995244517e+02
flow[innode_1,sink_16] 1.6354166666666970e+01
flow[innode_6,sink_13] 7.3404014110979574e+00
flow[sink_13,sink_14] -9.01376525556871
flow[sink_14,sink_10] -2.5367931922235584e+01
flow[sink_25,sink_26] 1.4974760346717585e+02
flow[sink_26,sink_9] 1.3339343680050925e+02
flow[sink_9,sink_18] 1.1703927013384258e+02
flow[sink_26,sink_4] 0
flow[sink_4,sink_20] -3.3682283295875436e+01
flow[sink_18,sink_6] 1.0068510346717591e+02
flow[sink_25,innode_8] -1.7701044661910879e+02
flow[sink_6,sink_7] 5.1622603467175850e+01
flow[sink_6,sink_22] 3.2708333333333641e+01
flow[sink_7,sink_24] 3.8447931222151730e+01
flow[sink_22,sink_1] 1.6354166666666970e+01
flow[sink_24,sink_21] 2.2093764555485063e+01
flow[sink_21,sink_12] 5.7395978888183956e+00
flow[sink_7,sink_5] -3.1794944216425449e+00
flow[sink_5,sink_17] -1.9533661088309259e+01
flow[sink_17,sink_4] -1.7328116629208751e+01
flow[sink_17,sink_8] -1.8559711125767080e+01
flow[sink_3,sink_23] 16.3541666666697
flow[sink_8,sink_20] -3.4913877792433709e+01
flow[sink_25,sink_20] 8.4950327754976030e+01
flow[sink_25,sink_15] -8.1382052680807774e+01
flow[sink_15,sink_29] 0
flow[sink_29,sink_28] 1.6354166666667879e+01
flow[sink_29,sink_2] 1.1409038601414112e+02
flow[sink_2,sink_15] 9.7736219347474446e+01
flow[sink_29,innode_7] -1.4679871934747564e+02
flow[innode_4,sink_19] 1.0713876525558214e+02
flow[sink_19,innode_3] 3.6321736607368706e+01
flow[innode_4,innode_5] 0
flow[sink_27,innode_5] 0
flow[sink_27,sink_19] -1.6354166666679703e+01
flow[sink_10,sink_11] 3.2708333333333641e+01
flow[sink_10,innode_2] -3.8108695314867049e+01
flow[sink_10,innode_3] -3.6321736607368706e+01
flow[innode_6,sink_25] -7.3404014110979574e+00
flow[sink_11,innode_1] 1.6354166666666970e+01
flow[sink_19,innode_2] 3.8108695314867049e+01
flow[source_3,innode_4] 1.0713876525558214e+02
flow[source_2,innode_7] 1.4679871934747564e+02
flow[sink_3,innode_8] 1.7701044661910879e+02
pressure[innode_1] 7.4506882379305821e+01
pressure[innode_2] 7.6672785628366583e+01
pressure[innode_3] 7.6592355255640058e+01
pressure[innode_4] 81.01325
pressure[innode_5] 7.6321655631223081e+01
pressure[innode_6] 7.3483051632824228e+01
pressure[innode_7] 81.01325
pressure[innode_8] 8.0312240234096777e+01
pressure[source_1] 81.01325
pressure[source_2] 81.01325
pressure[source_3] 81.01325
pressure[sink_1] 4.5927975108657265e+01
pressure[sink_2] 7.4196921104228934e+01
pressure[sink_3] 8.0312240234096777e+01
pressure[sink_4] 5.0760064326972568e+01
pressure[sink_5] 4.8642724289381277e+01
pressure[sink_6] 4.8029052719044635e+01
pressure[sink_7] 4.7320397423103252e+01
pressure[sink_8] 5.0798146964821612e+01
pressure[sink_9] 5.4952474391027884e+01
pressure[sink_10] 7.4658583686909367e+01
pressure[sink_11] 7.4506882379305821e+01
pressure[sink_12] 1.0132500000000007e+00
pressure[sink_13] 7.3442585226539876e+01
pressure[sink_14] 7.3458716127267749e+01
pressure[sink_15] 7.3877833888775214e+01
pressure[sink_16] 7.3485232544488142e+01
pressure[sink_17] 5.0097840847102589e+01
pressure[sink_18] 5.0717644760567211e+01
pressure[sink_19] 7.6672785628366583e+01
pressure[sink_20] 5.3231153243627737e+01
pressure[sink_21] 3.0557130582576431e+00
pressure[sink_22] 4.6991744251012278e+01
pressure[sink_23] 8.0147522222436990e+01
pressure[sink_24] 3.3003809731542040e+00
pressure[sink_25] 7.3483051632824228e+01
pressure[sink_26] 6.2936415862521656e+01
pressure[sink_27] 7.6321655631223081e+01
pressure[sink_28] 7.6791677067160180e+01
pressure[sink_29] 7.7086959340777355e+01
interdiction[source_1,sink_3] 0
interdiction[innode_1,sink_16] 0
interdiction[innode_6,sink_13] 0
interdiction[sink_13,sink_14] 0
interdiction[sink_14,sink_10] 0
interdiction[sink_25,sink_26] 0
interdiction[sink_26,sink_9] 0
interdiction[sink_9,sink_18] 0
interdiction[sink_26,sink_4] 1
interdiction[sink_4,sink_20] 0
interdiction[sink_18,sink_6] 0
interdiction[sink_25,innode_8] 0
interdiction[sink_6,sink_7] 0
interdiction[sink_6,sink_22] 0
interdiction[sink_7,sink_24] 0
interdiction[sink_22,sink_1] 0
interdiction[sink_24,sink_21] 0
interdiction[sink_21,sink_12] 0
interdiction[sink_7,sink_5] 0
interdiction[sink_5,sink_17] 0
interdiction[sink_17,sink_4] 0
interdiction[sink_17,sink_8] 0
interdiction[sink_3,sink_23] 0
interdiction[sink_8,sink_20] 0
interdiction[sink_25,sink_20] 0
interdiction[sink_25,sink_15] 0
interdiction[sink_15,sink_29] 1
interdiction[sink_29,sink_28] 0
interdiction[sink_29,sink_2] 0
interdiction[sink_2,sink_15] 0
interdiction[sink_29,innode_7] 0
interdiction[innode_4,sink_19] 0
interdiction[sink_19,innode_3] 0
interdiction[innode_4,innode_5] 1
interdiction[sink_27,innode_5] 0
interdiction[sink_27,sink_19] 0
interdiction[sink_10,sink_11] 0
interdiction[sink_10,innode_2] 0
interdiction[sink_10,innode_3] 0
interdiction[innode_6,sink_25] 0
interdiction[sink_11,innode_1] 0
interdiction[sink_19,innode_2] 0
interdiction[source_3,innode_4] 0
interdiction[source_2,innode_7] 0
interdiction[sink_3,innode_8] 0
WCcheckFlow[source_1,sink_3] 39
WCcheckFlow[innode_1,sink_16] 1
WCcheckFlow[innode_6,sink_13] 13
WCcheckFlow[sink_13,sink_14] 12
WCcheckFlow[sink_14,sink_10] 11
WCcheckFlow[sink_25,sink_26] 15
WCcheckFlow[sink_26,sink_9] 14
WCcheckFlow[sink_9,sink_18] 13
WCcheckFlow[sink_26,sink_4] 0
WCcheckFlow[sink_4,sink_20] 1
WCcheckFlow[sink_18,sink_6] 12
WCcheckFlow[sink_25,innode_8] -36
WCcheckFlow[sink_6,sink_7] 9
WCcheckFlow[sink_6,sink_22] 2
WCcheckFlow[sink_7,sink_24] 3
WCcheckFlow[sink_22,sink_1] 1
WCcheckFlow[sink_24,sink_21] 2
WCcheckFlow[sink_21,sink_12] 1
WCcheckFlow[sink_7,sink_5] 5
WCcheckFlow[sink_5,sink_17] 4
WCcheckFlow[sink_17,sink_4] 2
WCcheckFlow[sink_17,sink_8] 1
WCcheckFlow[sink_3,sink_23] 1
WCcheckFlow[sink_8,sink_20] 0
WCcheckFlow[sink_25,sink_20] 0
WCcheckFlow[sink_25,sink_15] 6
WCcheckFlow[sink_15,sink_29] 0
WCcheckFlow[sink_29,sink_28] 1
WCcheckFlow[sink_29,sink_2] -4
WCcheckFlow[sink_2,sink_15] -5
WCcheckFlow[sink_29,innode_7] 2
WCcheckFlow[innode_4,sink_19] -2
WCcheckFlow[sink_19,innode_3] -5
WCcheckFlow[innode_4,innode_5] 0
WCcheckFlow[sink_27,innode_5] 1
WCcheckFlow[sink_27,sink_19] -2
WCcheckFlow[sink_10,sink_11] 3
WCcheckFlow[sink_10,innode_2] 1
WCcheckFlow[sink_10,innode_3] 6
WCcheckFlow[innode_6,sink_25] -14
WCcheckFlow[sink_11,innode_1] 2
WCcheckFlow[sink_19,innode_2] 0
WCcheckFlow[source_3,innode_4] -1
WCcheckFlow[source_2,innode_7] -1
WCcheckFlow[sink_3,innode_8] 37
